problem_generation/data/GISP/train/er_n=65_m=1239_p=0.60_SET2_setparam=100.00_alpha=0.50_238.lp
maximize
OBJ:100x0 + 100x1 + 100x2 + 100x3 + 100x4 + 100x5 + 100x6 + 100x7 + 100x8 + 100x9 + 100x10 + 100x11 + 100x12 + 100x13 + 100x14 + 100x15 + 100x16 + 100x17 + 100x18 + 100x19 + 100x20 + 100x21 + 100x22 + 100x23 + 100x24 + 100x25 + 100x26 + 100x27 + 100x28 + 100x29 + 100x30 + 100x31 + 100x32 + 100x33 + 100x34 + 100x35 + 100x36 + 100x37 + 100x38 + 100x39 + 100x40 + 100x41 + 100x42 + 100x43 + 100x44 + 100x45 + 100x46 + 100x47 + 100x48 + 100x49 + 100x50 + 100x51 + 100x52 + 100x53 + 100x54 + 100x55 + 100x56 + 100x57 + 100x58 + 100x59 + 100x60 + 100x61 + 100x62 + 100x63 + 100x64 - y15_21 - y47_53 - y18_26 - y36_62 - y15_39 - y28_58 - y9_63 - y0_5 - y0_14 - y29_50 - y40_50 - y48_63 - y29_59 - y40_59 - y21_64 - y10_27 - y33_38 - y2_32 - y25_34 - y44_47 - y25_43 - y10_54 - y3_15 - y10_63 - y51_64 - y3_42 - y7_12 - y7_30 - y5_60 - y17_62 - y28_62 - y29_36 - y0_9 - y6_43 - y21_41 - y29_54 - y21_50 - y21_59 - y10_22 - y25_38 - y10_49 - y25_47 - y22_23 - y32_55 - y22_32 - y13_51 - y14_28 - y3_37 - y16_56 - y55_56 - y28_39 - y17_48 - y59_63 - y9_44 - y28_57 - y9_53 - y5_64 - y29_40 - y6_47 - y40_49 - y40_58 - y2_13 - y10_26 - y39_62 - y10_35 - y2_49 - y3_14 - y22_27 - y13_46 - y24_46 - y14_23 - y51_63 - y24_64 - y36_47 - y9_30 - y55_60 - y17_52 - y6_24 - y9_57 - y21_22 - y50_58 - y29_35 - y10_21 - y54_64 - y32_36 - y3_9 - y32_45 - y51_58 - y24_41 - y3_18 - y16_37 - y13_50 - y43_63 - y24_59 - y5_36 - y36_51 - y17_47 - y17_56 - y28_56 - y9_52 - y61_62 - y2_3 - y20_48 - y62_63 - y12_44 - y20_57 - y4_49 - y23_62 - y13_36 - y43_49 - y16_32 - y1_43 - y24_45 - y32_58 - y35_45 - y13_54 - y24_54 - y16_50 - y35_63 - y16_59 - y17_24 - y46_60 - y9_29 - y5_49 - y5_58 - y6_23 - y58_61 - y27_55 - y50_57 - y6_32 - y8_51 - y21_30 - y19_60 - y31_43 - y31_52 - y23_48 - y4_44 - y13_31 - y43_44 - y1_38 - y35_40 - y1_47 - y13_49 - y16_45 - y5_17 - y17_19 - y46_55 - y49_51 - y57_64 - y9_24 - y49_60 - y17_37 - y5_44 - y6_18 - y8_46 - y42_48 - y27_59 - y19_55 - y30_55 - y0_51 - y8_64 - y19_64 - y31_38 - y39_51 - y23_34 - y39_60 - y23_43 - y31_56 - y1_15 - y4_48 - y23_61 - y1_24 - y13_26 - y4_57 - y32_39 - y24_44 - y1_51 - y16_49 - y17_23 - y15_53 - y49_55 - y49_64 - y8_41 - y19_41 - y8_50 - y30_59 - y11_55 - y31_33 - y0_64 - y11_64 - y31_51 - y23_47 - y1_10 - y23_56 - y1_19 - y53_57 - y16_17 - y13_30 - y24_30 - y22_60 - y56_62 - y1_46 - y38_41 - y5_25 - y57_63 - y7_53 - y8_27 - y19_27 - y27_40 - y19_36 - y0_32 - y11_32 - y42_47 - y42_56 - y12_15 - y30_63 - y11_59 - y12_24 - y39_41 - y20_37 - y52_60 - y12_33 - y23_33 - y1_23 - y53_61 - y16_21 - y45_57 - y37_53 - y16_30 - y5_11 - y46_49 - y15_43 - y46_58 - y18_39 - y49_54 - y8_13 - y49_63 - y7_57 - y11_18 - y8_31 - y19_31 - y30_31 - y11_27 - y30_40 - y30_49 - y11_45 - y4_6 - y0_54 - y11_54 - y52_55 - y31_32 - y4_15 - y12_28 - y33_60 - y12_37 - y34_43 - y37_39 - y34_61 - y3_55 - y37_57 - y26_29 - y7_25 - y38_40 - y18_34 - y15_56 - y26_56 - y0_13 - y11_13 - y19_26 - y8_26 - y18_61 - y11_22 - y48_62 - y30_35 - y0_31 - y8_44 - y19_44 - y11_40 - y41_50 - y60_63 - y4_10 - y10_53 - y44_55 - y2_58 - y22_36 - y1_13 - y45_47 - y34_56 - y37_52 - y15_24 - y26_33 - y18_38 - y18_47 - y8_12 - y0_17 - y8_30 - y29_62 - y21_58 - y41_45 - y10_48 - y2_44 - y10_57 - y33_59 - y2_53 - y25_55 - y22_31 - y22_40 - y3_36 - y34_51 - y14_54 - y15_19 - y37_56 - y18_24 - y36_60 - y18_42 - y0_12 - y19_25 - y40_57 - y21_53 - y10_34 - y41_49 - y4_9 - y44_54 - y25_50 - y34_37 - y22_44 - y3_40 - y14_49 - y36_46 - y55_59 - y7_19 - y18_19 - y26_32 - y17_51 - y36_64 - y47_64 - y8_11 - y0_7 - y0_16 - y6_59 - y29_61 - y40_61 - y25_27 - y10_38 - y33_49 - y44_49 - y2_43 - y3_8 - y51_57 - y2_52 - y14_17 - y25_54 - y3_26 - y32_62 - y14_35 - y36_41 - y59_61 - y5_53 - y17_64 - y6_27 - y9_60 - y0_2 - y6_36 - y48_51 - y6_45 - y40_47 - y40_56 - y10_15 - y10_24 - y2_20 - y54_58 - y33_35 - y2_38 - y25_40 - y10_51 - y51_61 - y2_56 - y14_21 - y43_57 - y24_53 - y14_30 - y24_62 - y16_58 - y28_32 - y55_58 - y17_41 - y5_57 - y29_33 - y29_42 - y40_51 - y2_6 - y39_55 - y2_15 - y10_28 - y2_24 - y31_60 - y32_34 - y13_39 - y3_16 - y14_16 - y43_52 - y35_48 - y3_25 - y16_44 - y9_23 - y28_36 - y47_49 - y5_43 - y36_58 - y9_41 - y5_52 - y28_54 - y5_61 - y58_64 - y50_60 - y6_35 - y2_10 - y20_46 - y31_46 - y39_59 - y2_19 - y20_55 - y31_55 - y23_51 - y13_25 - y2_37 - y24_34 - y13_43 - y24_43 - y35_43 - y16_39 - y35_52 - y16_57 - y17_31 - y28_31 - y5_47 - y6_12 - y9_45 - y58_59 - y50_55 - y21_28 - y50_64 - y42_60 - y39_45 - y20_41 - y39_54 - y2_14 - y31_50 - y2_23 - y4_42 - y31_59 - y12_55 - y12_64 - y24_29 - y32_42 - y13_38 - y13_47 - y9_13 - y46_62 - y36_39 - y38_58 - y17_35 - y6_16 - y27_48 - y58_63 - y30_53 - y42_55 - y0_49 - y30_62 - y42_64 - y11_58 - y10_13 - y20_45 - y23_50 - y23_59 - y4_55 - y16_20 - y32_37 - y24_33 - y1_40 - y35_42 - y1_49 - y38_44 - y46_57 - y49_53 - y28_30 - y26_60 - y5_37 - y19_39 - y19_48 - y42_50 - y19_57 - y11_53 - y20_31 - y39_44 - y20_40 - y20_49 - y4_32 - y12_45 - y12_54 - y1_17 - y53_55 - y13_28 - y53_64 - y34_60 - y1_35 - y35_37 - y46_52 - y15_55 - y7_51 - y18_51 - y8_43 - y30_43 - y27_56 - y19_61 - y60_62 - y0_57 - y20_35 - y23_31 - y23_40 - y1_3 - y45_46 - y13_23 - y53_59 - y4_54 - y16_19 - y1_30 - y34_64 - y56_64 - y3_58 - y14_58 - y5_9 - y15_50 - y15_59 - y26_59 - y7_64 - y27_42 - y19_38 - y19_47 - y8_56 - y19_56 - y0_52 - y4_13 - y52_62 - y33_58 - y4_40 - y13_18 - y45_50 - y37_46 - y14_53 - y26_36 - y46_51 - y7_32 - y7_41 - y38_56 - y7_50 - y18_59 - y27_37 - y0_20 - y11_20 - y0_29 - y60_61 - y4_8 - y52_57 - y33_53 - y10_60 - y44_62 - y4_35 - y34_36 - y34_45 - y1_20 - y14_39 - y22_52 - y3_48 - y14_48 - y22_61 - y34_63 - y37_59 - y26_40 - y7_36 - y26_49 - y8_19 - y11_15 - y8_28 - y29_60 - y40_60 - y19_37 - y21_56 - y25_44 - y2_51 - y10_64 - y22_29 - y14_34 - y22_47 - y45_58 - y37_54 - y15_17 - y59_60 - y7_31 - y18_31 - y15_44 - y26_44 - y7_49 - y48_50 - y29_46 - y8_23 - y29_55 - y21_51 - y6_62 - y11_28 - y21_60 - y41_47 - y25_39 - y44_52 - y25_48 - y44_61 - y22_24 - y14_20 - y22_42 - y22_51 - y14_47 - y7_8
 Subject to
C1: x0+x2-y0_2 <=1 
C2: x0+x4 <=1 
C3: x0+x5-y0_5 <=1 
C4: x0+x7-y0_7 <=1 
C5: x0+x8 <=1 
C6: x0+x9-y0_9 <=1 
C7: x0+x10 <=1 
C8: x0+x11 <=1 
C9: x0+x12-y0_12 <=1 
C10: x0+x13-y0_13 <=1 
C11: x0+x14-y0_14 <=1 
C12: x0+x16-y0_16 <=1 
C13: x0+x17-y0_17 <=1 
C14: x0+x19 <=1 
C15: x0+x20-y0_20 <=1 
C16: x0+x29-y0_29 <=1 
C17: x0+x30 <=1 
C18: x0+x31-y0_31 <=1 
C19: x0+x32-y0_32 <=1 
C20: x0+x34 <=1 
C21: x0+x38 <=1 
C22: x0+x40 <=1 
C23: x0+x42 <=1 
C24: x0+x43 <=1 
C25: x0+x45 <=1 
C26: x0+x47 <=1 
C27: x0+x48 <=1 
C28: x0+x49-y0_49 <=1 
C29: x0+x51-y0_51 <=1 
C30: x0+x52-y0_52 <=1 
C31: x0+x54-y0_54 <=1 
C32: x0+x55 <=1 
C33: x0+x57-y0_57 <=1 
C34: x0+x59 <=1 
C35: x0+x61 <=1 
C36: x0+x63 <=1 
C37: x0+x64-y0_64 <=1 
C38: x1+x2 <=1 
C39: x1+x3-y1_3 <=1 
C40: x1+x5 <=1 
C41: x1+x10-y1_10 <=1 
C42: x1+x13-y1_13 <=1 
C43: x1+x14 <=1 
C44: x1+x15-y1_15 <=1 
C45: x1+x16 <=1 
C46: x1+x17-y1_17 <=1 
C47: x1+x19-y1_19 <=1 
C48: x1+x20-y1_20 <=1 
C49: x1+x22 <=1 
C50: x1+x23-y1_23 <=1 
C51: x1+x24-y1_24 <=1 
C52: x1+x25 <=1 
C53: x1+x29 <=1 
C54: x1+x30-y1_30 <=1 
C55: x1+x34 <=1 
C56: x1+x35-y1_35 <=1 
C57: x1+x37 <=1 
C58: x1+x38-y1_38 <=1 
C59: x1+x39 <=1 
C60: x1+x40-y1_40 <=1 
C61: x1+x41 <=1 
C62: x1+x43-y1_43 <=1 
C63: x1+x46-y1_46 <=1 
C64: x1+x47-y1_47 <=1 
C65: x1+x49-y1_49 <=1 
C66: x1+x50 <=1 
C67: x1+x51-y1_51 <=1 
C68: x1+x52 <=1 
C69: x1+x54 <=1 
C70: x1+x59 <=1 
C71: x1+x60 <=1 
C72: x2+x3-y2_3 <=1 
C73: x2+x4 <=1 
C74: x2+x5 <=1 
C75: x2+x6-y2_6 <=1 
C76: x2+x10-y2_10 <=1 
C77: x2+x13-y2_13 <=1 
C78: x2+x14-y2_14 <=1 
C79: x2+x15-y2_15 <=1 
C80: x2+x18 <=1 
C81: x2+x19-y2_19 <=1 
C82: x2+x20-y2_20 <=1 
C83: x2+x21 <=1 
C84: x2+x22 <=1 
C85: x2+x23-y2_23 <=1 
C86: x2+x24-y2_24 <=1 
C87: x2+x32-y2_32 <=1 
C88: x2+x34 <=1 
C89: x2+x35 <=1 
C90: x2+x36 <=1 
C91: x2+x37-y2_37 <=1 
C92: x2+x38-y2_38 <=1 
C93: x2+x39 <=1 
C94: x2+x40 <=1 
C95: x2+x41 <=1 
C96: x2+x43-y2_43 <=1 
C97: x2+x44-y2_44 <=1 
C98: x2+x48 <=1 
C99: x2+x49-y2_49 <=1 
C100: x2+x51-y2_51 <=1 
C101: x2+x52-y2_52 <=1 
C102: x2+x53-y2_53 <=1 
C103: x2+x56-y2_56 <=1 
C104: x2+x57 <=1 
C105: x2+x58-y2_58 <=1 
C106: x2+x59 <=1 
C107: x2+x63 <=1 
C108: x3+x8-y3_8 <=1 
C109: x3+x9-y3_9 <=1 
C110: x3+x10 <=1 
C111: x3+x14-y3_14 <=1 
C112: x3+x15-y3_15 <=1 
C113: x3+x16-y3_16 <=1 
C114: x3+x18-y3_18 <=1 
C115: x3+x19 <=1 
C116: x3+x20 <=1 
C117: x3+x21 <=1 
C118: x3+x22 <=1 
C119: x3+x23 <=1 
C120: x3+x24 <=1 
C121: x3+x25-y3_25 <=1 
C122: x3+x26-y3_26 <=1 
C123: x3+x28 <=1 
C124: x3+x30 <=1 
C125: x3+x32 <=1 
C126: x3+x33 <=1 
C127: x3+x36-y3_36 <=1 
C128: x3+x37-y3_37 <=1 
C129: x3+x40-y3_40 <=1 
C130: x3+x42-y3_42 <=1 
C131: x3+x43 <=1 
C132: x3+x44 <=1 
C133: x3+x45 <=1 
C134: x3+x48-y3_48 <=1 
C135: x3+x50 <=1 
C136: x3+x52 <=1 
C137: x3+x55-y3_55 <=1 
C138: x3+x56 <=1 
C139: x3+x58-y3_58 <=1 
C140: x3+x60 <=1 
C141: x3+x64 <=1 
C142: x4+x6-y4_6 <=1 
C143: x4+x8-y4_8 <=1 
C144: x4+x9-y4_9 <=1 
C145: x4+x10-y4_10 <=1 
C146: x4+x11 <=1 
C147: x4+x13-y4_13 <=1 
C148: x4+x15-y4_15 <=1 
C149: x4+x17 <=1 
C150: x4+x22 <=1 
C151: x4+x23 <=1 
C152: x4+x24 <=1 
C153: x4+x25 <=1 
C154: x4+x26 <=1 
C155: x4+x27 <=1 
C156: x4+x32-y4_32 <=1 
C157: x4+x34 <=1 
C158: x4+x35-y4_35 <=1 
C159: x4+x36 <=1 
C160: x4+x39 <=1 
C161: x4+x40-y4_40 <=1 
C162: x4+x42-y4_42 <=1 
C163: x4+x44-y4_44 <=1 
C164: x4+x45 <=1 
C165: x4+x46 <=1 
C166: x4+x47 <=1 
C167: x4+x48-y4_48 <=1 
C168: x4+x49-y4_49 <=1 
C169: x4+x51 <=1 
C170: x4+x52 <=1 
C171: x4+x53 <=1 
C172: x4+x54-y4_54 <=1 
C173: x4+x55-y4_55 <=1 
C174: x4+x56 <=1 
C175: x4+x57-y4_57 <=1 
C176: x4+x60 <=1 
C177: x4+x61 <=1 
C178: x4+x63 <=1 
C179: x4+x64 <=1 
C180: x5+x9-y5_9 <=1 
C181: x5+x11-y5_11 <=1 
C182: x5+x16 <=1 
C183: x5+x17-y5_17 <=1 
C184: x5+x18 <=1 
C185: x5+x19 <=1 
C186: x5+x20 <=1 
C187: x5+x25-y5_25 <=1 
C188: x5+x26 <=1 
C189: x5+x27 <=1 
C190: x5+x28 <=1 
C191: x5+x29 <=1 
C192: x5+x32 <=1 
C193: x5+x33 <=1 
C194: x5+x36-y5_36 <=1 
C195: x5+x37-y5_37 <=1 
C196: x5+x38 <=1 
C197: x5+x39 <=1 
C198: x5+x40 <=1 
C199: x5+x43-y5_43 <=1 
C200: x5+x44-y5_44 <=1 
C201: x5+x47-y5_47 <=1 
C202: x5+x48 <=1 
C203: x5+x49-y5_49 <=1 
C204: x5+x51 <=1 
C205: x5+x52-y5_52 <=1 
C206: x5+x53-y5_53 <=1 
C207: x5+x57-y5_57 <=1 
C208: x5+x58-y5_58 <=1 
C209: x5+x60-y5_60 <=1 
C210: x5+x61-y5_61 <=1 
C211: x5+x64-y5_64 <=1 
C212: x6+x7 <=1 
C213: x6+x8 <=1 
C214: x6+x10 <=1 
C215: x6+x12-y6_12 <=1 
C216: x6+x13 <=1 
C217: x6+x16-y6_16 <=1 
C218: x6+x18-y6_18 <=1 
C219: x6+x20 <=1 
C220: x6+x21 <=1 
C221: x6+x23-y6_23 <=1 
C222: x6+x24-y6_24 <=1 
C223: x6+x25 <=1 
C224: x6+x26 <=1 
C225: x6+x27-y6_27 <=1 
C226: x6+x31 <=1 
C227: x6+x32-y6_32 <=1 
C228: x6+x34 <=1 
C229: x6+x35-y6_35 <=1 
C230: x6+x36-y6_36 <=1 
C231: x6+x37 <=1 
C232: x6+x40 <=1 
C233: x6+x43-y6_43 <=1 
C234: x6+x44 <=1 
C235: x6+x45-y6_45 <=1 
C236: x6+x46 <=1 
C237: x6+x47-y6_47 <=1 
C238: x6+x51 <=1 
C239: x6+x54 <=1 
C240: x6+x59-y6_59 <=1 
C241: x6+x62-y6_62 <=1 
C242: x6+x64 <=1 
C243: x7+x8-y7_8 <=1 
C244: x7+x11 <=1 
C245: x7+x12-y7_12 <=1 
C246: x7+x13 <=1 
C247: x7+x14 <=1 
C248: x7+x15 <=1 
C249: x7+x19-y7_19 <=1 
C250: x7+x20 <=1 
C251: x7+x25-y7_25 <=1 
C252: x7+x29 <=1 
C253: x7+x30-y7_30 <=1 
C254: x7+x31-y7_31 <=1 
C255: x7+x32-y7_32 <=1 
C256: x7+x33 <=1 
C257: x7+x35 <=1 
C258: x7+x36-y7_36 <=1 
C259: x7+x37 <=1 
C260: x7+x41-y7_41 <=1 
C261: x7+x42 <=1 
C262: x7+x43 <=1 
C263: x7+x44 <=1 
C264: x7+x45 <=1 
C265: x7+x46 <=1 
C266: x7+x48 <=1 
C267: x7+x49-y7_49 <=1 
C268: x7+x50-y7_50 <=1 
C269: x7+x51-y7_51 <=1 
C270: x7+x53-y7_53 <=1 
C271: x7+x56 <=1 
C272: x7+x57-y7_57 <=1 
C273: x7+x59 <=1 
C274: x7+x60 <=1 
C275: x7+x61 <=1 
C276: x7+x62 <=1 
C277: x7+x64-y7_64 <=1 
C278: x8+x10 <=1 
C279: x8+x11-y8_11 <=1 
C280: x8+x12-y8_12 <=1 
C281: x8+x13-y8_13 <=1 
C282: x8+x15 <=1 
C283: x8+x18 <=1 
C284: x8+x19-y8_19 <=1 
C285: x8+x20 <=1 
C286: x8+x22 <=1 
C287: x8+x23-y8_23 <=1 
C288: x8+x25 <=1 
C289: x8+x26-y8_26 <=1 
C290: x8+x27-y8_27 <=1 
C291: x8+x28-y8_28 <=1 
C292: x8+x30-y8_30 <=1 
C293: x8+x31-y8_31 <=1 
C294: x8+x33 <=1 
C295: x8+x34 <=1 
C296: x8+x36 <=1 
C297: x8+x40 <=1 
C298: x8+x41-y8_41 <=1 
C299: x8+x43-y8_43 <=1 
C300: x8+x44-y8_44 <=1 
C301: x8+x46-y8_46 <=1 
C302: x8+x47 <=1 
C303: x8+x48 <=1 
C304: x8+x49 <=1 
C305: x8+x50-y8_50 <=1 
C306: x8+x51-y8_51 <=1 
C307: x8+x52 <=1 
C308: x8+x55 <=1 
C309: x8+x56-y8_56 <=1 
C310: x8+x58 <=1 
C311: x8+x59 <=1 
C312: x8+x60 <=1 
C313: x8+x64-y8_64 <=1 
C314: x9+x10 <=1 
C315: x9+x13-y9_13 <=1 
C316: x9+x15 <=1 
C317: x9+x16 <=1 
C318: x9+x18 <=1 
C319: x9+x19 <=1 
C320: x9+x23-y9_23 <=1 
C321: x9+x24-y9_24 <=1 
C322: x9+x28 <=1 
C323: x9+x29-y9_29 <=1 
C324: x9+x30-y9_30 <=1 
C325: x9+x31 <=1 
C326: x9+x33 <=1 
C327: x9+x36 <=1 
C328: x9+x37 <=1 
C329: x9+x41-y9_41 <=1 
C330: x9+x43 <=1 
C331: x9+x44-y9_44 <=1 
C332: x9+x45-y9_45 <=1 
C333: x9+x47 <=1 
C334: x9+x48 <=1 
C335: x9+x51 <=1 
C336: x9+x52-y9_52 <=1 
C337: x9+x53-y9_53 <=1 
C338: x9+x54 <=1 
C339: x9+x55 <=1 
C340: x9+x57-y9_57 <=1 
C341: x9+x58 <=1 
C342: x9+x59 <=1 
C343: x9+x60-y9_60 <=1 
C344: x9+x63-y9_63 <=1 
C345: x9+x64 <=1 
C346: x10+x11 <=1 
C347: x10+x13-y10_13 <=1 
C348: x10+x15-y10_15 <=1 
C349: x10+x19 <=1 
C350: x10+x20 <=1 
C351: x10+x21-y10_21 <=1 
C352: x10+x22-y10_22 <=1 
C353: x10+x24-y10_24 <=1 
C354: x10+x25 <=1 
C355: x10+x26-y10_26 <=1 
C356: x10+x27-y10_27 <=1 
C357: x10+x28-y10_28 <=1 
C358: x10+x29 <=1 
C359: x10+x30 <=1 
C360: x10+x31 <=1 
C361: x10+x34-y10_34 <=1 
C362: x10+x35-y10_35 <=1 
C363: x10+x36 <=1 
C364: x10+x38-y10_38 <=1 
C365: x10+x40 <=1 
C366: x10+x41 <=1 
C367: x10+x42 <=1 
C368: x10+x45 <=1 
C369: x10+x48-y10_48 <=1 
C370: x10+x49-y10_49 <=1 
C371: x10+x50 <=1 
C372: x10+x51-y10_51 <=1 
C373: x10+x52 <=1 
C374: x10+x53-y10_53 <=1 
C375: x10+x54-y10_54 <=1 
C376: x10+x55 <=1 
C377: x10+x56 <=1 
C378: x10+x57-y10_57 <=1 
C379: x10+x59 <=1 
C380: x10+x60-y10_60 <=1 
C381: x10+x61 <=1 
C382: x10+x63-y10_63 <=1 
C383: x10+x64-y10_64 <=1 
C384: x11+x12 <=1 
C385: x11+x13-y11_13 <=1 
C386: x11+x15-y11_15 <=1 
C387: x11+x18-y11_18 <=1 
C388: x11+x20-y11_20 <=1 
C389: x11+x22-y11_22 <=1 
C390: x11+x23 <=1 
C391: x11+x24 <=1 
C392: x11+x26 <=1 
C393: x11+x27-y11_27 <=1 
C394: x11+x28-y11_28 <=1 
C395: x11+x29 <=1 
C396: x11+x31 <=1 
C397: x11+x32-y11_32 <=1 
C398: x11+x36 <=1 
C399: x11+x40-y11_40 <=1 
C400: x11+x41 <=1 
C401: x11+x42 <=1 
C402: x11+x45-y11_45 <=1 
C403: x11+x48 <=1 
C404: x11+x52 <=1 
C405: x11+x53-y11_53 <=1 
C406: x11+x54-y11_54 <=1 
C407: x11+x55-y11_55 <=1 
C408: x11+x58-y11_58 <=1 
C409: x11+x59-y11_59 <=1 
C410: x11+x60 <=1 
C411: x11+x61 <=1 
C412: x11+x63 <=1 
C413: x11+x64-y11_64 <=1 
C414: x12+x13 <=1 
C415: x12+x14 <=1 
C416: x12+x15-y12_15 <=1 
C417: x12+x17 <=1 
C418: x12+x18 <=1 
C419: x12+x20 <=1 
C420: x12+x21 <=1 
C421: x12+x24-y12_24 <=1 
C422: x12+x25 <=1 
C423: x12+x26 <=1 
C424: x12+x28-y12_28 <=1 
C425: x12+x30 <=1 
C426: x12+x32 <=1 
C427: x12+x33-y12_33 <=1 
C428: x12+x35 <=1 
C429: x12+x36 <=1 
C430: x12+x37-y12_37 <=1 
C431: x12+x44-y12_44 <=1 
C432: x12+x45-y12_45 <=1 
C433: x12+x46 <=1 
C434: x12+x47 <=1 
C435: x12+x48 <=1 
C436: x12+x52 <=1 
C437: x12+x53 <=1 
C438: x12+x54-y12_54 <=1 
C439: x12+x55-y12_55 <=1 
C440: x12+x57 <=1 
C441: x12+x58 <=1 
C442: x12+x61 <=1 
C443: x12+x63 <=1 
C444: x12+x64-y12_64 <=1 
C445: x13+x14 <=1 
C446: x13+x16 <=1 
C447: x13+x17 <=1 
C448: x13+x18-y13_18 <=1 
C449: x13+x19 <=1 
C450: x13+x23-y13_23 <=1 
C451: x13+x25-y13_25 <=1 
C452: x13+x26-y13_26 <=1 
C453: x13+x27 <=1 
C454: x13+x28-y13_28 <=1 
C455: x13+x30-y13_30 <=1 
C456: x13+x31-y13_31 <=1 
C457: x13+x32 <=1 
C458: x13+x34 <=1 
C459: x13+x35 <=1 
C460: x13+x36-y13_36 <=1 
C461: x13+x38-y13_38 <=1 
C462: x13+x39-y13_39 <=1 
C463: x13+x43-y13_43 <=1 
C464: x13+x46-y13_46 <=1 
C465: x13+x47-y13_47 <=1 
C466: x13+x48 <=1 
C467: x13+x49-y13_49 <=1 
C468: x13+x50-y13_50 <=1 
C469: x13+x51-y13_51 <=1 
C470: x13+x52 <=1 
C471: x13+x53 <=1 
C472: x13+x54-y13_54 <=1 
C473: x13+x55 <=1 
C474: x13+x63 <=1 
C475: x14+x16-y14_16 <=1 
C476: x14+x17-y14_17 <=1 
C477: x14+x19 <=1 
C478: x14+x20-y14_20 <=1 
C479: x14+x21-y14_21 <=1 
C480: x14+x23-y14_23 <=1 
C481: x14+x28-y14_28 <=1 
C482: x14+x29 <=1 
C483: x14+x30-y14_30 <=1 
C484: x14+x31 <=1 
C485: x14+x34-y14_34 <=1 
C486: x14+x35-y14_35 <=1 
C487: x14+x37 <=1 
C488: x14+x39-y14_39 <=1 
C489: x14+x40 <=1 
C490: x14+x42 <=1 
C491: x14+x45 <=1 
C492: x14+x46 <=1 
C493: x14+x47-y14_47 <=1 
C494: x14+x48-y14_48 <=1 
C495: x14+x49-y14_49 <=1 
C496: x14+x52 <=1 
C497: x14+x53-y14_53 <=1 
C498: x14+x54-y14_54 <=1 
C499: x14+x57 <=1 
C500: x14+x58-y14_58 <=1 
C501: x15+x16 <=1 
C502: x15+x17-y15_17 <=1 
C503: x15+x19-y15_19 <=1 
C504: x15+x20 <=1 
C505: x15+x21-y15_21 <=1 
C506: x15+x24-y15_24 <=1 
C507: x15+x26 <=1 
C508: x15+x27 <=1 
C509: x15+x29 <=1 
C510: x15+x30 <=1 
C511: x15+x31 <=1 
C512: x15+x33 <=1 
C513: x15+x35 <=1 
C514: x15+x38 <=1 
C515: x15+x39-y15_39 <=1 
C516: x15+x40 <=1 
C517: x15+x42 <=1 
C518: x15+x43-y15_43 <=1 
C519: x15+x44-y15_44 <=1 
C520: x15+x45 <=1 
C521: x15+x47 <=1 
C522: x15+x48 <=1 
C523: x15+x50-y15_50 <=1 
C524: x15+x53-y15_53 <=1 
C525: x15+x55-y15_55 <=1 
C526: x15+x56-y15_56 <=1 
C527: x15+x59-y15_59 <=1 
C528: x15+x61 <=1 
C529: x15+x62 <=1 
C530: x15+x63 <=1 
C531: x16+x17-y16_17 <=1 
C532: x16+x18 <=1 
C533: x16+x19-y16_19 <=1 
C534: x16+x20-y16_20 <=1 
C535: x16+x21-y16_21 <=1 
C536: x16+x23 <=1 
C537: x16+x24 <=1 
C538: x16+x28 <=1 
C539: x16+x30-y16_30 <=1 
C540: x16+x32-y16_32 <=1 
C541: x16+x33 <=1 
C542: x16+x34 <=1 
C543: x16+x35 <=1 
C544: x16+x36 <=1 
C545: x16+x37-y16_37 <=1 
C546: x16+x39-y16_39 <=1 
C547: x16+x40 <=1 
C548: x16+x44-y16_44 <=1 
C549: x16+x45-y16_45 <=1 
C550: x16+x46 <=1 
C551: x16+x47 <=1 
C552: x16+x48 <=1 
C553: x16+x49-y16_49 <=1 
C554: x16+x50-y16_50 <=1 
C555: x16+x52 <=1 
C556: x16+x54 <=1 
C557: x16+x55 <=1 
C558: x16+x56-y16_56 <=1 
C559: x16+x57-y16_57 <=1 
C560: x16+x58-y16_58 <=1 
C561: x16+x59-y16_59 <=1 
C562: x17+x18 <=1 
C563: x17+x19-y17_19 <=1 
C564: x17+x20 <=1 
C565: x17+x22 <=1 
C566: x17+x23-y17_23 <=1 
C567: x17+x24-y17_24 <=1 
C568: x17+x26 <=1 
C569: x17+x28 <=1 
C570: x17+x29 <=1 
C571: x17+x31-y17_31 <=1 
C572: x17+x32 <=1 
C573: x17+x34 <=1 
C574: x17+x35-y17_35 <=1 
C575: x17+x37-y17_37 <=1 
C576: x17+x39 <=1 
C577: x17+x40 <=1 
C578: x17+x41-y17_41 <=1 
C579: x17+x42 <=1 
C580: x17+x43 <=1 
C581: x17+x44 <=1 
C582: x17+x45 <=1 
C583: x17+x46 <=1 
C584: x17+x47-y17_47 <=1 
C585: x17+x48-y17_48 <=1 
C586: x17+x49 <=1 
C587: x17+x51-y17_51 <=1 
C588: x17+x52-y17_52 <=1 
C589: x17+x56-y17_56 <=1 
C590: x17+x57 <=1 
C591: x17+x59 <=1 
C592: x17+x60 <=1 
C593: x17+x62-y17_62 <=1 
C594: x17+x64-y17_64 <=1 
C595: x18+x19-y18_19 <=1 
C596: x18+x21 <=1 
C597: x18+x24-y18_24 <=1 
C598: x18+x25 <=1 
C599: x18+x26-y18_26 <=1 
C600: x18+x27 <=1 
C601: x18+x28 <=1 
C602: x18+x30 <=1 
C603: x18+x31-y18_31 <=1 
C604: x18+x34-y18_34 <=1 
C605: x18+x38-y18_38 <=1 
C606: x18+x39-y18_39 <=1 
C607: x18+x40 <=1 
C608: x18+x42-y18_42 <=1 
C609: x18+x43 <=1 
C610: x18+x44 <=1 
C611: x18+x46 <=1 
C612: x18+x47-y18_47 <=1 
C613: x18+x49 <=1 
C614: x18+x51-y18_51 <=1 
C615: x18+x54 <=1 
C616: x18+x56 <=1 
C617: x18+x57 <=1 
C618: x18+x59-y18_59 <=1 
C619: x18+x60 <=1 
C620: x18+x61-y18_61 <=1 
C621: x19+x20 <=1 
C622: x19+x21 <=1 
C623: x19+x22 <=1 
C624: x19+x25-y19_25 <=1 
C625: x19+x26-y19_26 <=1 
C626: x19+x27-y19_27 <=1 
C627: x19+x29 <=1 
C628: x19+x30 <=1 
C629: x19+x31-y19_31 <=1 
C630: x19+x32 <=1 
C631: x19+x35 <=1 
C632: x19+x36-y19_36 <=1 
C633: x19+x37-y19_37 <=1 
C634: x19+x38-y19_38 <=1 
C635: x19+x39-y19_39 <=1 
C636: x19+x40 <=1 
C637: x19+x41-y19_41 <=1 
C638: x19+x44-y19_44 <=1 
C639: x19+x46 <=1 
C640: x19+x47-y19_47 <=1 
C641: x19+x48-y19_48 <=1 
C642: x19+x50 <=1 
C643: x19+x55-y19_55 <=1 
C644: x19+x56-y19_56 <=1 
C645: x19+x57-y19_57 <=1 
C646: x19+x59 <=1 
C647: x19+x60-y19_60 <=1 
C648: x19+x61-y19_61 <=1 
C649: x19+x64-y19_64 <=1 
C650: x20+x23 <=1 
C651: x20+x24 <=1 
C652: x20+x25 <=1 
C653: x20+x27 <=1 
C654: x20+x28 <=1 
C655: x20+x31-y20_31 <=1 
C656: x20+x33 <=1 
C657: x20+x35-y20_35 <=1 
C658: x20+x36 <=1 
C659: x20+x37-y20_37 <=1 
C660: x20+x40-y20_40 <=1 
C661: x20+x41-y20_41 <=1 
C662: x20+x42 <=1 
C663: x20+x45-y20_45 <=1 
C664: x20+x46-y20_46 <=1 
C665: x20+x48-y20_48 <=1 
C666: x20+x49-y20_49 <=1 
C667: x20+x51 <=1 
C668: x20+x55-y20_55 <=1 
C669: x20+x57-y20_57 <=1 
C670: x20+x58 <=1 
C671: x20+x63 <=1 
C672: x20+x64 <=1 
C673: x21+x22-y21_22 <=1 
C674: x21+x24 <=1 
C675: x21+x25 <=1 
C676: x21+x27 <=1 
C677: x21+x28-y21_28 <=1 
C678: x21+x29 <=1 
C679: x21+x30-y21_30 <=1 
C680: x21+x32 <=1 
C681: x21+x33 <=1 
C682: x21+x36 <=1 
C683: x21+x37 <=1 
C684: x21+x39 <=1 
C685: x21+x41-y21_41 <=1 
C686: x21+x42 <=1 
C687: x21+x43 <=1 
C688: x21+x44 <=1 
C689: x21+x49 <=1 
C690: x21+x50-y21_50 <=1 
C691: x21+x51-y21_51 <=1 
C692: x21+x53-y21_53 <=1 
C693: x21+x54 <=1 
C694: x21+x55 <=1 
C695: x21+x56-y21_56 <=1 
C696: x21+x58-y21_58 <=1 
C697: x21+x59-y21_59 <=1 
C698: x21+x60-y21_60 <=1 
C699: x21+x62 <=1 
C700: x21+x64-y21_64 <=1 
C701: x22+x23-y22_23 <=1 
C702: x22+x24-y22_24 <=1 
C703: x22+x27-y22_27 <=1 
C704: x22+x29-y22_29 <=1 
C705: x22+x30 <=1 
C706: x22+x31-y22_31 <=1 
C707: x22+x32-y22_32 <=1 
C708: x22+x33 <=1 
C709: x22+x35 <=1 
C710: x22+x36-y22_36 <=1 
C711: x22+x37 <=1 
C712: x22+x38 <=1 
C713: x22+x40-y22_40 <=1 
C714: x22+x41 <=1 
C715: x22+x42-y22_42 <=1 
C716: x22+x43 <=1 
C717: x22+x44-y22_44 <=1 
C718: x22+x46 <=1 
C719: x22+x47-y22_47 <=1 
C720: x22+x50 <=1 
C721: x22+x51-y22_51 <=1 
C722: x22+x52-y22_52 <=1 
C723: x22+x53 <=1 
C724: x22+x54 <=1 
C725: x22+x60-y22_60 <=1 
C726: x22+x61-y22_61 <=1 
C727: x22+x62 <=1 
C728: x23+x25 <=1 
C729: x23+x26 <=1 
C730: x23+x27 <=1 
C731: x23+x29 <=1 
C732: x23+x30 <=1 
C733: x23+x31-y23_31 <=1 
C734: x23+x32 <=1 
C735: x23+x33-y23_33 <=1 
C736: x23+x34-y23_34 <=1 
C737: x23+x36 <=1 
C738: x23+x37 <=1 
C739: x23+x38 <=1 
C740: x23+x39 <=1 
C741: x23+x40-y23_40 <=1 
C742: x23+x43-y23_43 <=1 
C743: x23+x47-y23_47 <=1 
C744: x23+x48-y23_48 <=1 
C745: x23+x49 <=1 
C746: x23+x50-y23_50 <=1 
C747: x23+x51-y23_51 <=1 
C748: x23+x54 <=1 
C749: x23+x55 <=1 
C750: x23+x56-y23_56 <=1 
C751: x23+x57 <=1 
C752: x23+x59-y23_59 <=1 
C753: x23+x61-y23_61 <=1 
C754: x23+x62-y23_62 <=1 
C755: x24+x25 <=1 
C756: x24+x29-y24_29 <=1 
C757: x24+x30-y24_30 <=1 
C758: x24+x33-y24_33 <=1 
C759: x24+x34-y24_34 <=1 
C760: x24+x35 <=1 
C761: x24+x36 <=1 
C762: x24+x37 <=1 
C763: x24+x41-y24_41 <=1 
C764: x24+x42 <=1 
C765: x24+x43-y24_43 <=1 
C766: x24+x44-y24_44 <=1 
C767: x24+x45-y24_45 <=1 
C768: x24+x46-y24_46 <=1 
C769: x24+x47 <=1 
C770: x24+x48 <=1 
C771: x24+x53-y24_53 <=1 
C772: x24+x54-y24_54 <=1 
C773: x24+x56 <=1 
C774: x24+x58 <=1 
C775: x24+x59-y24_59 <=1 
C776: x24+x62-y24_62 <=1 
C777: x24+x63 <=1 
C778: x24+x64-y24_64 <=1 
C779: x25+x27-y25_27 <=1 
C780: x25+x29 <=1 
C781: x25+x30 <=1 
C782: x25+x33 <=1 
C783: x25+x34-y25_34 <=1 
C784: x25+x35 <=1 
C785: x25+x36 <=1 
C786: x25+x38-y25_38 <=1 
C787: x25+x39-y25_39 <=1 
C788: x25+x40-y25_40 <=1 
C789: x25+x43-y25_43 <=1 
C790: x25+x44-y25_44 <=1 
C791: x25+x47-y25_47 <=1 
C792: x25+x48-y25_48 <=1 
C793: x25+x50-y25_50 <=1 
C794: x25+x54-y25_54 <=1 
C795: x25+x55-y25_55 <=1 
C796: x25+x56 <=1 
C797: x25+x57 <=1 
C798: x25+x58 <=1 
C799: x25+x61 <=1 
C800: x25+x63 <=1 
C801: x25+x64 <=1 
C802: x26+x27 <=1 
C803: x26+x29-y26_29 <=1 
C804: x26+x30 <=1 
C805: x26+x31 <=1 
C806: x26+x32-y26_32 <=1 
C807: x26+x33-y26_33 <=1 
C808: x26+x34 <=1 
C809: x26+x36-y26_36 <=1 
C810: x26+x40-y26_40 <=1 
C811: x26+x44-y26_44 <=1 
C812: x26+x48 <=1 
C813: x26+x49-y26_49 <=1 
C814: x26+x50 <=1 
C815: x26+x53 <=1 
C816: x26+x54 <=1 
C817: x26+x55 <=1 
C818: x26+x56-y26_56 <=1 
C819: x26+x58 <=1 
C820: x26+x59-y26_59 <=1 
C821: x26+x60-y26_60 <=1 
C822: x26+x64 <=1 
C823: x27+x29 <=1 
C824: x27+x31 <=1 
C825: x27+x35 <=1 
C826: x27+x36 <=1 
C827: x27+x37-y27_37 <=1 
C828: x27+x38 <=1 
C829: x27+x40-y27_40 <=1 
C830: x27+x42-y27_42 <=1 
C831: x27+x47 <=1 
C832: x27+x48-y27_48 <=1 
C833: x27+x51 <=1 
C834: x27+x52 <=1 
C835: x27+x53 <=1 
C836: x27+x55-y27_55 <=1 
C837: x27+x56-y27_56 <=1 
C838: x27+x57 <=1 
C839: x27+x59-y27_59 <=1 
C840: x27+x64 <=1 
C841: x28+x29 <=1 
C842: x28+x30-y28_30 <=1 
C843: x28+x31-y28_31 <=1 
C844: x28+x32-y28_32 <=1 
C845: x28+x33 <=1 
C846: x28+x34 <=1 
C847: x28+x36-y28_36 <=1 
C848: x28+x39-y28_39 <=1 
C849: x28+x40 <=1 
C850: x28+x41 <=1 
C851: x28+x42 <=1 
C852: x28+x43 <=1 
C853: x28+x44 <=1 
C854: x28+x45 <=1 
C855: x28+x52 <=1 
C856: x28+x54-y28_54 <=1 
C857: x28+x55 <=1 
C858: x28+x56-y28_56 <=1 
C859: x28+x57-y28_57 <=1 
C860: x28+x58-y28_58 <=1 
C861: x28+x59 <=1 
C862: x28+x61 <=1 
C863: x28+x62-y28_62 <=1 
C864: x29+x30 <=1 
C865: x29+x32 <=1 
C866: x29+x33-y29_33 <=1 
C867: x29+x34 <=1 
C868: x29+x35-y29_35 <=1 
C869: x29+x36-y29_36 <=1 
C870: x29+x40-y29_40 <=1 
C871: x29+x41 <=1 
C872: x29+x42-y29_42 <=1 
C873: x29+x43 <=1 
C874: x29+x46-y29_46 <=1 
C875: x29+x47 <=1 
C876: x29+x48 <=1 
C877: x29+x50-y29_50 <=1 
C878: x29+x54-y29_54 <=1 
C879: x29+x55-y29_55 <=1 
C880: x29+x57 <=1 
C881: x29+x59-y29_59 <=1 
C882: x29+x60-y29_60 <=1 
C883: x29+x61-y29_61 <=1 
C884: x29+x62-y29_62 <=1 
C885: x29+x63 <=1 
C886: x30+x31-y30_31 <=1 
C887: x30+x32 <=1 
C888: x30+x33 <=1 
C889: x30+x35-y30_35 <=1 
C890: x30+x36 <=1 
C891: x30+x38 <=1 
C892: x30+x40-y30_40 <=1 
C893: x30+x41 <=1 
C894: x30+x43-y30_43 <=1 
C895: x30+x44 <=1 
C896: x30+x45 <=1 
C897: x30+x47 <=1 
C898: x30+x49-y30_49 <=1 
C899: x30+x51 <=1 
C900: x30+x53-y30_53 <=1 
C901: x30+x55-y30_55 <=1 
C902: x30+x57 <=1 
C903: x30+x58 <=1 
C904: x30+x59-y30_59 <=1 
C905: x30+x62-y30_62 <=1 
C906: x30+x63-y30_63 <=1 
C907: x31+x32-y31_32 <=1 
C908: x31+x33-y31_33 <=1 
C909: x31+x35 <=1 
C910: x31+x37 <=1 
C911: x31+x38-y31_38 <=1 
C912: x31+x39 <=1 
C913: x31+x40 <=1 
C914: x31+x41 <=1 
C915: x31+x43-y31_43 <=1 
C916: x31+x44 <=1 
C917: x31+x46-y31_46 <=1 
C918: x31+x47 <=1 
C919: x31+x50-y31_50 <=1 
C920: x31+x51-y31_51 <=1 
C921: x31+x52-y31_52 <=1 
C922: x31+x54 <=1 
C923: x31+x55-y31_55 <=1 
C924: x31+x56-y31_56 <=1 
C925: x31+x57 <=1 
C926: x31+x59-y31_59 <=1 
C927: x31+x60-y31_60 <=1 
C928: x31+x62 <=1 
C929: x31+x64 <=1 
C930: x32+x33 <=1 
C931: x32+x34-y32_34 <=1 
C932: x32+x36-y32_36 <=1 
C933: x32+x37-y32_37 <=1 
C934: x32+x38 <=1 
C935: x32+x39-y32_39 <=1 
C936: x32+x42-y32_42 <=1 
C937: x32+x45-y32_45 <=1 
C938: x32+x52 <=1 
C939: x32+x55-y32_55 <=1 
C940: x32+x56 <=1 
C941: x32+x57 <=1 
C942: x32+x58-y32_58 <=1 
C943: x32+x62-y32_62 <=1 
C944: x32+x63 <=1 
C945: x33+x35-y33_35 <=1 
C946: x33+x38-y33_38 <=1 
C947: x33+x39 <=1 
C948: x33+x40 <=1 
C949: x33+x44 <=1 
C950: x33+x46 <=1 
C951: x33+x48 <=1 
C952: x33+x49-y33_49 <=1 
C953: x33+x53-y33_53 <=1 
C954: x33+x54 <=1 
C955: x33+x55 <=1 
C956: x33+x58-y33_58 <=1 
C957: x33+x59-y33_59 <=1 
C958: x33+x60-y33_60 <=1 
C959: x33+x61 <=1 
C960: x33+x63 <=1 
C961: x34+x35 <=1 
C962: x34+x36-y34_36 <=1 
C963: x34+x37-y34_37 <=1 
C964: x34+x39 <=1 
C965: x34+x40 <=1 
C966: x34+x43-y34_43 <=1 
C967: x34+x44 <=1 
C968: x34+x45-y34_45 <=1 
C969: x34+x51-y34_51 <=1 
C970: x34+x55 <=1 
C971: x34+x56-y34_56 <=1 
C972: x34+x57 <=1 
C973: x34+x60-y34_60 <=1 
C974: x34+x61-y34_61 <=1 
C975: x34+x63-y34_63 <=1 
C976: x34+x64-y34_64 <=1 
C977: x35+x37-y35_37 <=1 
C978: x35+x40-y35_40 <=1 
C979: x35+x41 <=1 
C980: x35+x42-y35_42 <=1 
C981: x35+x43-y35_43 <=1 
C982: x35+x44 <=1 
C983: x35+x45-y35_45 <=1 
C984: x35+x47 <=1 
C985: x35+x48-y35_48 <=1 
C986: x35+x52-y35_52 <=1 
C987: x35+x53 <=1 
C988: x35+x54 <=1 
C989: x35+x57 <=1 
C990: x35+x58 <=1 
C991: x35+x61 <=1 
C992: x35+x62 <=1 
C993: x35+x63-y35_63 <=1 
C994: x36+x39-y36_39 <=1 
C995: x36+x40 <=1 
C996: x36+x41-y36_41 <=1 
C997: x36+x44 <=1 
C998: x36+x46-y36_46 <=1 
C999: x36+x47-y36_47 <=1 
C1000: x36+x48 <=1 
C1001: x36+x51-y36_51 <=1 
C1002: x36+x52 <=1 
C1003: x36+x53 <=1 
C1004: x36+x57 <=1 
C1005: x36+x58-y36_58 <=1 
C1006: x36+x59 <=1 
C1007: x36+x60-y36_60 <=1 
C1008: x36+x62-y36_62 <=1 
C1009: x36+x63 <=1 
C1010: x36+x64-y36_64 <=1 
C1011: x37+x39-y37_39 <=1 
C1012: x37+x40 <=1 
C1013: x37+x41 <=1 
C1014: x37+x46-y37_46 <=1 
C1015: x37+x47 <=1 
C1016: x37+x48 <=1 
C1017: x37+x51 <=1 
C1018: x37+x52-y37_52 <=1 
C1019: x37+x53-y37_53 <=1 
C1020: x37+x54-y37_54 <=1 
C1021: x37+x55 <=1 
C1022: x37+x56-y37_56 <=1 
C1023: x37+x57-y37_57 <=1 
C1024: x37+x59-y37_59 <=1 
C1025: x38+x39 <=1 
C1026: x38+x40-y38_40 <=1 
C1027: x38+x41-y38_41 <=1 
C1028: x38+x42 <=1 
C1029: x38+x44-y38_44 <=1 
C1030: x38+x48 <=1 
C1031: x38+x49 <=1 
C1032: x38+x50 <=1 
C1033: x38+x55 <=1 
C1034: x38+x56-y38_56 <=1 
C1035: x38+x57 <=1 
C1036: x38+x58-y38_58 <=1 
C1037: x38+x61 <=1 
C1038: x38+x63 <=1 
C1039: x39+x41-y39_41 <=1 
C1040: x39+x44-y39_44 <=1 
C1041: x39+x45-y39_45 <=1 
C1042: x39+x46 <=1 
C1043: x39+x47 <=1 
C1044: x39+x48 <=1 
C1045: x39+x51-y39_51 <=1 
C1046: x39+x54-y39_54 <=1 
C1047: x39+x55-y39_55 <=1 
C1048: x39+x56 <=1 
C1049: x39+x57 <=1 
C1050: x39+x59-y39_59 <=1 
C1051: x39+x60-y39_60 <=1 
C1052: x39+x62-y39_62 <=1 
C1053: x40+x42 <=1 
C1054: x40+x47-y40_47 <=1 
C1055: x40+x49-y40_49 <=1 
C1056: x40+x50-y40_50 <=1 
C1057: x40+x51-y40_51 <=1 
C1058: x40+x54 <=1 
C1059: x40+x55 <=1 
C1060: x40+x56-y40_56 <=1 
C1061: x40+x57-y40_57 <=1 
C1062: x40+x58-y40_58 <=1 
C1063: x40+x59-y40_59 <=1 
C1064: x40+x60-y40_60 <=1 
C1065: x40+x61-y40_61 <=1 
C1066: x40+x64 <=1 
C1067: x41+x42 <=1 
C1068: x41+x43 <=1 
C1069: x41+x45-y41_45 <=1 
C1070: x41+x46 <=1 
C1071: x41+x47-y41_47 <=1 
C1072: x41+x49-y41_49 <=1 
C1073: x41+x50-y41_50 <=1 
C1074: x41+x55 <=1 
C1075: x41+x57 <=1 
C1076: x41+x60 <=1 
C1077: x41+x64 <=1 
C1078: x42+x43 <=1 
C1079: x42+x45 <=1 
C1080: x42+x47-y42_47 <=1 
C1081: x42+x48-y42_48 <=1 
C1082: x42+x50-y42_50 <=1 
C1083: x42+x52 <=1 
C1084: x42+x55-y42_55 <=1 
C1085: x42+x56-y42_56 <=1 
C1086: x42+x57 <=1 
C1087: x42+x58 <=1 
C1088: x42+x59 <=1 
C1089: x42+x60-y42_60 <=1 
C1090: x42+x61 <=1 
C1091: x42+x62 <=1 
C1092: x42+x64-y42_64 <=1 
C1093: x43+x44-y43_44 <=1 
C1094: x43+x45 <=1 
C1095: x43+x48 <=1 
C1096: x43+x49-y43_49 <=1 
C1097: x43+x52-y43_52 <=1 
C1098: x43+x53 <=1 
C1099: x43+x56 <=1 
C1100: x43+x57-y43_57 <=1 
C1101: x43+x58 <=1 
C1102: x43+x63-y43_63 <=1 
C1103: x44+x46 <=1 
C1104: x44+x47-y44_47 <=1 
C1105: x44+x48 <=1 
C1106: x44+x49-y44_49 <=1 
C1107: x44+x50 <=1 
C1108: x44+x51 <=1 
C1109: x44+x52-y44_52 <=1 
C1110: x44+x54-y44_54 <=1 
C1111: x44+x55-y44_55 <=1 
C1112: x44+x59 <=1 
C1113: x44+x60 <=1 
C1114: x44+x61-y44_61 <=1 
C1115: x44+x62-y44_62 <=1 
C1116: x44+x64 <=1 
C1117: x45+x46-y45_46 <=1 
C1118: x45+x47-y45_47 <=1 
C1119: x45+x48 <=1 
C1120: x45+x50-y45_50 <=1 
C1121: x45+x51 <=1 
C1122: x45+x52 <=1 
C1123: x45+x53 <=1 
C1124: x45+x54 <=1 
C1125: x45+x55 <=1 
C1126: x45+x57-y45_57 <=1 
C1127: x45+x58-y45_58 <=1 
C1128: x45+x59 <=1 
C1129: x45+x61 <=1 
C1130: x46+x47 <=1 
C1131: x46+x48 <=1 
C1132: x46+x49-y46_49 <=1 
C1133: x46+x51-y46_51 <=1 
C1134: x46+x52-y46_52 <=1 
C1135: x46+x53 <=1 
C1136: x46+x54 <=1 
C1137: x46+x55-y46_55 <=1 
C1138: x46+x56 <=1 
C1139: x46+x57-y46_57 <=1 
C1140: x46+x58-y46_58 <=1 
C1141: x46+x60-y46_60 <=1 
C1142: x46+x62-y46_62 <=1 
C1143: x47+x48 <=1 
C1144: x47+x49-y47_49 <=1 
C1145: x47+x50 <=1 
C1146: x47+x51 <=1 
C1147: x47+x52 <=1 
C1148: x47+x53-y47_53 <=1 
C1149: x47+x59 <=1 
C1150: x47+x63 <=1 
C1151: x47+x64-y47_64 <=1 
C1152: x48+x49 <=1 
C1153: x48+x50-y48_50 <=1 
C1154: x48+x51-y48_51 <=1 
C1155: x48+x54 <=1 
C1156: x48+x55 <=1 
C1157: x48+x56 <=1 
C1158: x48+x57 <=1 
C1159: x48+x59 <=1 
C1160: x48+x60 <=1 
C1161: x48+x62-y48_62 <=1 
C1162: x48+x63-y48_63 <=1 
C1163: x48+x64 <=1 
C1164: x49+x50 <=1 
C1165: x49+x51-y49_51 <=1 
C1166: x49+x53-y49_53 <=1 
C1167: x49+x54-y49_54 <=1 
C1168: x49+x55-y49_55 <=1 
C1169: x49+x56 <=1 
C1170: x49+x60-y49_60 <=1 
C1171: x49+x63-y49_63 <=1 
C1172: x49+x64-y49_64 <=1 
C1173: x50+x51 <=1 
C1174: x50+x55-y50_55 <=1 
C1175: x50+x56 <=1 
C1176: x50+x57-y50_57 <=1 
C1177: x50+x58-y50_58 <=1 
C1178: x50+x60-y50_60 <=1 
C1179: x50+x61 <=1 
C1180: x50+x62 <=1 
C1181: x50+x64-y50_64 <=1 
C1182: x51+x53 <=1 
C1183: x51+x57-y51_57 <=1 
C1184: x51+x58-y51_58 <=1 
C1185: x51+x61-y51_61 <=1 
C1186: x51+x63-y51_63 <=1 
C1187: x51+x64-y51_64 <=1 
C1188: x52+x54 <=1 
C1189: x52+x55-y52_55 <=1 
C1190: x52+x57-y52_57 <=1 
C1191: x52+x60-y52_60 <=1 
C1192: x52+x62-y52_62 <=1 
C1193: x53+x54 <=1 
C1194: x53+x55-y53_55 <=1 
C1195: x53+x57-y53_57 <=1 
C1196: x53+x59-y53_59 <=1 
C1197: x53+x61-y53_61 <=1 
C1198: x53+x64-y53_64 <=1 
C1199: x54+x56 <=1 
C1200: x54+x58-y54_58 <=1 
C1201: x54+x59 <=1 
C1202: x54+x60 <=1 
C1203: x54+x61 <=1 
C1204: x54+x64-y54_64 <=1 
C1205: x55+x56-y55_56 <=1 
C1206: x55+x58-y55_58 <=1 
C1207: x55+x59-y55_59 <=1 
C1208: x55+x60-y55_60 <=1 
C1209: x55+x61 <=1 
C1210: x55+x63 <=1 
C1211: x55+x64 <=1 
C1212: x56+x57 <=1 
C1213: x56+x60 <=1 
C1214: x56+x62-y56_62 <=1 
C1215: x56+x63 <=1 
C1216: x56+x64-y56_64 <=1 
C1217: x57+x58 <=1 
C1218: x57+x59 <=1 
C1219: x57+x60 <=1 
C1220: x57+x63-y57_63 <=1 
C1221: x57+x64-y57_64 <=1 
C1222: x58+x59-y58_59 <=1 
C1223: x58+x60 <=1 
C1224: x58+x61-y58_61 <=1 
C1225: x58+x62 <=1 
C1226: x58+x63-y58_63 <=1 
C1227: x58+x64-y58_64 <=1 
C1228: x59+x60-y59_60 <=1 
C1229: x59+x61-y59_61 <=1 
C1230: x59+x62 <=1 
C1231: x59+x63-y59_63 <=1 
C1232: x60+x61-y60_61 <=1 
C1233: x60+x62-y60_62 <=1 
C1234: x60+x63-y60_63 <=1 
C1235: x61+x62-y61_62 <=1 
C1236: x61+x63 <=1 
C1237: x61+x64 <=1 
C1238: x62+x63-y62_63 <=1 
C1239: x62+x64 <=1 

binary
x0
x1
x2
x3
x4
x5
x6
x7
x8
x9
x10
x11
x12
x13
x14
x15
x16
x17
x18
x19
x20
x21
x22
x23
x24
x25
x26
x27
x28
x29
x30
x31
x32
x33
x34
x35
x36
x37
x38
x39
x40
x41
x42
x43
x44
x45
x46
x47
x48
x49
x50
x51
x52
x53
x54
x55
x56
x57
x58
x59
x60
x61
x62
x63
x64
