problem_generation/data/GISP/train/er_n=65_m=1239_p=0.60_SET2_setparam=100.00_alpha=0.50_238.sol
objective value:                                 1176
x0                                                  1 	(obj:100)
x14                                                 1 	(obj:100)
x15                                                 1 	(obj:100)
x22                                                 1 	(obj:100)
x24                                                 1 	(obj:100)
x28                                                 1 	(obj:100)
x32                                                 1 	(obj:100)
x39                                                 1 	(obj:100)
x49                                                 1 	(obj:100)
x51                                                 1 	(obj:100)
x60                                                 1 	(obj:100)
x64                                                 1 	(obj:100)
y15_39                                              1 	(obj:-1)
y0_14                                               1 	(obj:-1)
y51_64                                              1 	(obj:-1)
y22_32                                              1 	(obj:-1)
y14_28                                              1 	(obj:-1)
y28_39                                              1 	(obj:-1)
y24_64                                              1 	(obj:-1)
y49_51                                              1 	(obj:-1)
y49_60                                              1 	(obj:-1)
y0_51                                               1 	(obj:-1)
y39_51                                              1 	(obj:-1)
y39_60                                              1 	(obj:-1)
y32_39                                              1 	(obj:-1)
y49_64                                              1 	(obj:-1)
y0_64                                               1 	(obj:-1)
y22_60                                              1 	(obj:-1)
y0_32                                               1 	(obj:-1)
y15_24                                              1 	(obj:-1)
y14_49                                              1 	(obj:-1)
y28_32                                              1 	(obj:-1)
y0_49                                               1 	(obj:-1)
y14_39                                              1 	(obj:-1)
y22_24                                              1 	(obj:-1)
y22_51                                              1 	(obj:-1)
